(set-logic QF_BV)
(define-fun implies ((p Bool) (q Bool)) Bool (or (not p) q))

(declare-const STANDARD_MODEL_NAME Bool)
(declare-const Camera Bool)
(declare-const T21MP Bool)
(declare-const T31MP Bool)
(declare-const T5MP Bool)
(declare-const GSM_Protocol_1900 Bool)
(declare-const MP3_Recording Bool)
(declare-const MP3 Bool)
(declare-const WAV Bool)
(assert
(and STANDARD_MODEL_NAME(and(implies(or T21MP T31MP T5MP)
 Camera)
(implies Camera(or(and T21MP(not T31MP)
(not T5MP))
(and(not T21MP)
 T31MP(not T5MP))
(and(not T21MP)
(not T31MP)
 T5MP)))
(and(implies Camera STANDARD_MODEL_NAME)
(implies GSM_Protocol_1900 STANDARD_MODEL_NAME)
(implies MP3_Recording STANDARD_MODEL_NAME))
(=(or MP3 WAV)
 STANDARD_MODEL_NAME))
(and(implies MP3_Recording MP3)
(implies STANDARD_MODEL_NAME Camera)))
)